set VV := 0 1 2 3 4 5 6 7 8 9 10 11 12 13 14 15 ;
set VS := 0 1 2 3 4 5 6 7 8 9 10 11 12 13 14 15 16 17 18 19 20 21 22 23 24 25 26 27 28 29 30 31 32 33 34 35 ;
param cv := 
0 17
1 12
2 17
3 24
4 22
5 24
6 12
7 11
8 18
9 17
10 12
11 24
12 20
13 17
14 15
15 19
;
param cs := 
0 23
1 29
2 27
3 28
4 24
5 27
6 24
7 21
8 27
9 39
10 23
11 37
12 22
13 30
14 40
15 33
16 25
17 33
18 37
19 28
20 29
21 38
22 29
23 33
24 37
25 40
26 24
27 27
28 28
29 22
30 40
31 28
32 32
33 29
34 24
35 29
;
param bv:	 0 1 2 3 4 5 6 7 8 9 10 11 12 13 14 15 := 
		0 0 0 0 0 0 0 0 10 0 0 0 15 0 0 0 18 
		1 0 0 0 0 0 0 0 0 0 16 0 0 0 0 23 13 
		2 0 0 0 14 0 0 0 0 0 0 0 0 0 0 23 0 
		3 0 0 0 0 0 0 0 0 0 0 21 15 0 0 16 0 
		4 0 0 0 0 0 0 0 0 16 0 0 0 0 0 16 0 
		5 0 0 0 0 0 0 25 0 0 0 0 0 13 0 0 0 
		6 0 0 0 0 0 0 0 0 0 0 0 0 0 0 0 0 
		7 0 0 0 0 0 0 0 0 0 0 0 0 20 18 12 0 
		8 0 0 0 0 0 0 0 0 0 13 0 0 0 0 0 0 
		9 0 0 0 0 0 0 0 0 0 0 0 0 0 0 17 22 
		10 0 0 0 0 0 0 0 0 0 0 0 0 0 0 0 0 
		11 0 0 0 0 0 0 0 0 0 0 0 0 0 0 0 0 
		12 0 0 0 0 0 0 0 0 0 0 0 0 0 0 0 0 
		13 0 0 0 0 0 0 0 0 0 0 0 0 0 0 0 0 
		14 0 0 0 0 0 0 0 0 0 0 0 0 0 0 0 0 
		15 0 0 0 0 0 0 0 0 0 0 0 0 0 0 0 0 
;
param bs:	 0 1 2 3 4 5 6 7 8 9 10 11 12 13 14 15 16 17 18 19 20 21 22 23 24 25 26 27 28 29 30 31 32 33 34 35 := 
		0 0 0 0 0 0 0 0 0 23 0 0 0 0 0 0 0 0 0 0 0 20 0 27 0 0 0 0 32 0 0 0 0 0 0 0 0 
		1 0 0 0 0 29 0 0 0 0 0 0 0 0 36 0 0 0 0 0 0 39 0 0 0 0 0 0 0 0 0 20 0 0 0 0 0 
		2 0 0 0 0 0 0 0 0 32 0 0 0 0 0 0 0 0 0 0 0 0 0 32 0 0 0 0 0 0 0 0 38 0 0 0 22 
		3 0 0 0 0 0 0 0 0 0 0 0 0 0 21 0 28 23 0 0 0 0 0 29 0 0 0 0 0 0 0 0 0 0 0 0 0 
		4 0 29 0 0 0 0 0 0 0 0 0 0 0 0 0 0 0 0 0 0 0 0 0 0 0 0 0 0 0 0 0 36 0 0 0 0 
		5 0 0 0 0 0 0 0 0 0 0 0 0 0 0 0 0 0 0 0 20 0 0 0 0 0 0 0 32 0 0 0 30 0 0 0 0 
		6 0 0 0 0 0 0 0 0 0 0 0 0 0 0 0 0 20 0 0 0 0 0 0 33 0 0 0 0 0 0 0 35 0 0 0 0 
		7 0 0 0 0 0 0 0 0 35 0 0 0 0 0 0 0 38 0 0 0 0 0 0 0 0 0 0 0 0 0 33 0 0 0 0 32 
		8 23 0 32 0 0 0 0 35 0 40 0 0 0 38 0 34 0 26 0 22 0 0 0 0 0 0 0 35 0 0 28 0 39 0 0 0 
		9 0 0 0 0 0 0 0 0 40 0 0 0 0 0 0 0 0 0 0 24 0 0 0 0 0 0 0 0 0 0 0 0 0 26 0 0 
		10 0 0 0 0 0 0 0 0 0 0 0 27 0 0 0 24 0 0 0 0 0 0 0 0 0 0 0 0 0 0 0 0 28 0 0 0 
		11 0 0 0 0 0 0 0 0 0 0 27 0 0 0 0 0 0 0 0 36 0 0 0 0 0 0 0 0 0 0 0 37 0 0 0 0 
		12 0 0 0 0 0 0 0 0 0 0 0 0 0 0 0 0 0 22 0 0 0 0 0 26 34 0 0 0 0 29 0 0 0 0 0 0 
		13 0 36 0 21 0 0 0 0 38 0 0 0 0 0 0 0 0 0 0 0 0 0 0 0 0 0 0 0 0 0 40 30 0 0 0 0 
		14 0 0 0 0 0 0 0 0 0 0 0 0 0 0 0 0 0 0 0 0 0 0 0 0 0 0 26 0 0 0 0 0 0 37 0 0 
		15 0 0 0 28 0 0 0 0 34 0 24 0 0 0 0 0 0 0 0 0 0 0 0 0 0 35 0 0 0 0 0 0 39 0 0 0 
		16 0 0 0 23 0 0 20 38 0 0 0 0 0 0 0 0 0 0 0 0 0 0 0 0 0 0 0 0 0 0 0 0 35 0 0 0 
		17 0 0 0 0 0 0 0 0 26 0 0 0 22 0 0 0 0 0 0 0 0 39 0 0 0 0 0 0 0 0 0 0 0 0 0 0 
		18 0 0 0 0 0 0 0 0 0 0 0 0 0 0 0 0 0 0 0 0 0 0 0 0 0 0 0 0 0 0 0 0 35 0 26 0 
		19 0 0 0 0 0 20 0 0 22 24 0 36 0 0 0 0 0 0 0 0 0 0 0 0 0 0 0 0 37 0 0 0 0 37 0 0 
		20 20 39 0 0 0 0 0 0 0 0 0 0 0 0 0 0 0 0 0 0 0 0 25 0 0 0 0 37 0 24 0 0 0 0 0 0 
		21 0 0 0 0 0 0 0 0 0 0 0 0 0 0 0 0 0 39 0 0 0 0 0 0 38 0 0 30 0 0 0 0 0 0 39 29 
		22 27 0 32 29 0 0 0 0 0 0 0 0 0 0 0 0 0 0 0 0 25 0 0 0 0 0 0 21 0 0 0 39 0 0 0 0 
		23 0 0 0 0 0 0 33 0 0 0 0 0 26 0 0 0 0 0 0 0 0 0 0 0 0 0 0 0 0 0 0 22 0 0 0 0 
		24 0 0 0 0 0 0 0 0 0 0 0 0 34 0 0 0 0 0 0 0 0 38 0 0 0 0 26 0 0 0 0 37 21 0 0 0 
		25 0 0 0 0 0 0 0 0 0 0 0 0 0 0 0 35 0 0 0 0 0 0 0 0 0 0 0 0 0 0 0 0 28 0 0 0 
		26 0 0 0 0 0 0 0 0 0 0 0 0 0 0 26 0 0 0 0 0 0 0 0 0 26 0 0 0 0 0 0 0 0 0 0 0 
		27 32 0 0 0 0 32 0 0 35 0 0 0 0 0 0 0 0 0 0 0 37 30 21 0 0 0 0 0 0 38 0 26 0 0 0 0 
		28 0 0 0 0 0 0 0 0 0 0 0 0 0 0 0 0 0 0 0 37 0 0 0 0 0 0 0 0 0 0 0 0 0 0 0 0 
		29 0 0 0 0 0 0 0 0 0 0 0 0 29 0 0 0 0 0 0 0 24 0 0 0 0 0 0 38 0 0 0 0 0 0 0 0 
		30 0 20 0 0 0 0 0 33 28 0 0 0 0 40 0 0 0 0 0 0 0 0 0 0 0 0 0 0 0 0 0 0 0 0 0 0 
		31 0 0 38 0 36 30 35 0 0 0 0 37 0 30 0 0 0 0 0 0 0 0 39 22 37 0 0 26 0 0 0 0 0 0 0 0 
		32 0 0 0 0 0 0 0 0 39 0 28 0 0 0 0 39 35 0 35 0 0 0 0 0 21 28 0 0 0 0 0 0 0 39 30 0 
		33 0 0 0 0 0 0 0 0 0 26 0 0 0 0 37 0 0 0 0 37 0 0 0 0 0 0 0 0 0 0 0 0 39 0 0 0 
		34 0 0 0 0 0 0 0 0 0 0 0 0 0 0 0 0 0 0 26 0 0 39 0 0 0 0 0 0 0 0 0 0 30 0 0 0 
		35 0 0 22 0 0 0 0 32 0 0 0 0 0 0 0 0 0 0 0 0 0 29 0 0 0 0 0 0 0 0 0 0 0 0 0 0 
;
